c sudoku, order: 9, holes: 64
c 
c .98.1....
c 2......6.
c .........
c ...3.2.5.
c .84......
c ...6.....
c ....4.8.9
c 3..5.....
c ......1..
c 
p cnf 308 2911
-1 -2 0
-1 -3 0
-1 -4 0
-2 -3 0
-2 -4 0
-3 -4 0
-5 -6 0
-5 -7 0
-6 -7 0
-8 -9 0
-8 -10 0
-8 -11 0
-8 -12 0
-9 -10 0
-9 -11 0
-9 -12 0
-10 -11 0
-10 -12 0
-11 -12 0
-13 -14 0
-13 -15 0
-13 -16 0
-13 -17 0
-14 -15 0
-14 -16 0
-14 -17 0
-15 -16 0
-15 -17 0
-16 -17 0
-18 -19 0
-18 -20 0
-18 -21 0
-19 -20 0
-19 -21 0
-20 -21 0
-22 -23 0
-22 -24 0
-22 -25 0
-22 -26 0
-23 -24 0
-23 -25 0
-23 -26 0
-24 -25 0
-24 -26 0
-25 -26 0
-27 -28 0
-27 -29 0
-27 -30 0
-27 -31 0
-28 -29 0
-28 -30 0
-28 -31 0
-29 -30 0
-29 -31 0
-30 -31 0
-32 -33 0
-32 -34 0
-32 -35 0
-33 -34 0
-33 -35 0
-34 -35 0
-36 -37 0
-36 -38 0
-36 -39 0
-37 -38 0
-37 -39 0
-38 -39 0
-40 -41 0
-40 -42 0
-40 -43 0
-40 -44 0
-41 -42 0
-41 -43 0
-41 -44 0
-42 -43 0
-42 -44 0
-43 -44 0
-45 -46 0
-45 -47 0
-45 -48 0
-45 -49 0
-45 -50 0
-46 -47 0
-46 -48 0
-46 -49 0
-46 -50 0
-47 -48 0
-47 -49 0
-47 -50 0
-48 -49 0
-48 -50 0
-49 -50 0
-51 -52 0
-51 -53 0
-51 -54 0
-51 -55 0
-52 -53 0
-52 -54 0
-52 -55 0
-53 -54 0
-53 -55 0
-54 -55 0
-56 -57 0
-56 -58 0
-56 -59 0
-56 -60 0
-56 -61 0
-57 -58 0
-57 -59 0
-57 -60 0
-57 -61 0
-58 -59 0
-58 -60 0
-58 -61 0
-59 -60 0
-59 -61 0
-60 -61 0
-62 -63 0
-62 -64 0
-62 -65 0
-62 -66 0
-63 -64 0
-63 -65 0
-63 -66 0
-64 -65 0
-64 -66 0
-65 -66 0
-67 -68 0
-67 -69 0
-67 -70 0
-67 -71 0
-67 -72 0
-68 -69 0
-68 -70 0
-68 -71 0
-68 -72 0
-69 -70 0
-69 -71 0
-69 -72 0
-70 -71 0
-70 -72 0
-71 -72 0
-73 -74 0
-73 -75 0
-73 -76 0
-73 -77 0
-74 -75 0
-74 -76 0
-74 -77 0
-75 -76 0
-75 -77 0
-76 -77 0
-78 -79 0
-78 -80 0
-78 -81 0
-78 -82 0
-79 -80 0
-79 -81 0
-79 -82 0
-80 -81 0
-80 -82 0
-81 -82 0
-83 -84 0
-83 -85 0
-83 -86 0
-83 -87 0
-83 -88 0
-83 -89 0
-84 -85 0
-84 -86 0
-84 -87 0
-84 -88 0
-84 -89 0
-85 -86 0
-85 -87 0
-85 -88 0
-85 -89 0
-86 -87 0
-86 -88 0
-86 -89 0
-87 -88 0
-87 -89 0
-88 -89 0
-90 -91 0
-90 -92 0
-90 -93 0
-90 -94 0
-90 -95 0
-90 -96 0
-91 -92 0
-91 -93 0
-91 -94 0
-91 -95 0
-91 -96 0
-92 -93 0
-92 -94 0
-92 -95 0
-92 -96 0
-93 -94 0
-93 -95 0
-93 -96 0
-94 -95 0
-94 -96 0
-95 -96 0
-97 -98 0
-97 -99 0
-97 -100 0
-97 -101 0
-97 -102 0
-98 -99 0
-98 -100 0
-98 -101 0
-98 -102 0
-99 -100 0
-99 -101 0
-99 -102 0
-100 -101 0
-100 -102 0
-101 -102 0
-103 -104 0
-103 -105 0
-103 -106 0
-103 -107 0
-103 -108 0
-103 -109 0
-104 -105 0
-104 -106 0
-104 -107 0
-104 -108 0
-104 -109 0
-105 -106 0
-105 -107 0
-105 -108 0
-105 -109 0
-106 -107 0
-106 -108 0
-106 -109 0
-107 -108 0
-107 -109 0
-108 -109 0
-110 -111 0
-110 -112 0
-110 -113 0
-110 -114 0
-110 -115 0
-110 -116 0
-111 -112 0
-111 -113 0
-111 -114 0
-111 -115 0
-111 -116 0
-112 -113 0
-112 -114 0
-112 -115 0
-112 -116 0
-113 -114 0
-113 -115 0
-113 -116 0
-114 -115 0
-114 -116 0
-115 -116 0
-117 -118 0
-117 -119 0
-117 -120 0
-118 -119 0
-118 -120 0
-119 -120 0
-121 -122 0
-121 -123 0
-122 -123 0
-124 -125 0
-124 -126 0
-124 -127 0
-125 -126 0
-125 -127 0
-126 -127 0
-128 -129 0
-128 -130 0
-129 -130 0
-131 -132 0
-131 -133 0
-131 -134 0
-132 -133 0
-132 -134 0
-133 -134 0
-135 -136 0
-135 -137 0
-135 -138 0
-135 -139 0
-136 -137 0
-136 -138 0
-136 -139 0
-137 -138 0
-137 -139 0
-138 -139 0
-140 -141 0
-140 -142 0
-140 -143 0
-140 -144 0
-141 -142 0
-141 -143 0
-141 -144 0
-142 -143 0
-142 -144 0
-143 -144 0
-145 -146 0
-145 -147 0
-146 -147 0
-148 -149 0
-148 -150 0
-149 -150 0
-151 -152 0
-151 -153 0
-151 -154 0
-152 -153 0
-152 -154 0
-153 -154 0
-155 -156 0
-155 -157 0
-155 -158 0
-155 -159 0
-156 -157 0
-156 -158 0
-156 -159 0
-157 -158 0
-157 -159 0
-158 -159 0
-160 -161 0
-160 -162 0
-160 -163 0
-160 -164 0
-161 -162 0
-161 -163 0
-161 -164 0
-162 -163 0
-162 -164 0
-163 -164 0
-165 -166 0
-165 -167 0
-165 -168 0
-165 -169 0
-166 -167 0
-166 -168 0
-166 -169 0
-167 -168 0
-167 -169 0
-168 -169 0
-170 -171 0
-170 -172 0
-170 -173 0
-171 -172 0
-171 -173 0
-172 -173 0
-174 -175 0
-174 -176 0
-174 -177 0
-174 -178 0
-175 -176 0
-175 -177 0
-175 -178 0
-176 -177 0
-176 -178 0
-177 -178 0
-179 -180 0
-179 -181 0
-179 -182 0
-179 -183 0
-179 -184 0
-180 -181 0
-180 -182 0
-180 -183 0
-180 -184 0
-181 -182 0
-181 -183 0
-181 -184 0
-182 -183 0
-182 -184 0
-183 -184 0
-185 -186 0
-185 -187 0
-185 -188 0
-186 -187 0
-186 -188 0
-187 -188 0
-189 -190 0
-189 -191 0
-189 -192 0
-189 -193 0
-189 -194 0
-190 -191 0
-190 -192 0
-190 -193 0
-190 -194 0
-191 -192 0
-191 -193 0
-191 -194 0
-192 -193 0
-192 -194 0
-193 -194 0
-195 -196 0
-195 -197 0
-195 -198 0
-195 -199 0
-196 -197 0
-196 -198 0
-196 -199 0
-197 -198 0
-197 -199 0
-198 -199 0
-200 -201 0
-200 -202 0
-200 -203 0
-200 -204 0
-200 -205 0
-200 -206 0
-201 -202 0
-201 -203 0
-201 -204 0
-201 -205 0
-201 -206 0
-202 -203 0
-202 -204 0
-202 -205 0
-202 -206 0
-203 -204 0
-203 -205 0
-203 -206 0
-204 -205 0
-204 -206 0
-205 -206 0
-207 -208 0
-207 -209 0
-207 -210 0
-207 -211 0
-207 -212 0
-208 -209 0
-208 -210 0
-208 -211 0
-208 -212 0
-209 -210 0
-209 -211 0
-209 -212 0
-210 -211 0
-210 -212 0
-211 -212 0
-213 -214 0
-213 -215 0
-213 -216 0
-214 -215 0
-214 -216 0
-215 -216 0
-217 -218 0
-217 -219 0
-217 -220 0
-217 -221 0
-218 -219 0
-218 -220 0
-218 -221 0
-219 -220 0
-219 -221 0
-220 -221 0
-222 -223 0
-222 -224 0
-222 -225 0
-222 -226 0
-223 -224 0
-223 -225 0
-223 -226 0
-224 -225 0
-224 -226 0
-225 -226 0
-227 -228 0
-227 -229 0
-228 -229 0
-230 -231 0
-230 -232 0
-230 -233 0
-231 -232 0
-231 -233 0
-232 -233 0
-234 -235 0
-234 -236 0
-235 -236 0
-237 -238 0
-237 -239 0
-237 -240 0
-237 -241 0
-238 -239 0
-238 -240 0
-238 -241 0
-239 -240 0
-239 -241 0
-240 -241 0
-242 -243 0
-242 -244 0
-242 -245 0
-242 -246 0
-243 -244 0
-243 -245 0
-243 -246 0
-244 -245 0
-244 -246 0
-245 -246 0
-247 -248 0
-247 -249 0
-247 -250 0
-247 -251 0
-248 -249 0
-248 -250 0
-248 -251 0
-249 -250 0
-249 -251 0
-250 -251 0
-252 -253 0
-252 -254 0
-252 -255 0
-252 -256 0
-253 -254 0
-253 -255 0
-253 -256 0
-254 -255 0
-254 -256 0
-255 -256 0
-257 -258 0
-257 -259 0
-257 -260 0
-258 -259 0
-258 -260 0
-259 -260 0
-261 -262 0
-261 -263 0
-262 -263 0
-264 -265 0
-264 -266 0
-264 -267 0
-265 -266 0
-265 -267 0
-266 -267 0
-268 -269 0
-268 -270 0
-268 -271 0
-268 -272 0
-268 -273 0
-269 -270 0
-269 -271 0
-269 -272 0
-269 -273 0
-270 -271 0
-270 -272 0
-270 -273 0
-271 -272 0
-271 -273 0
-272 -273 0
-274 -275 0
-274 -276 0
-274 -277 0
-274 -278 0
-275 -276 0
-275 -277 0
-275 -278 0
-276 -277 0
-276 -278 0
-277 -278 0
-279 -280 0
-279 -281 0
-279 -282 0
-279 -283 0
-280 -281 0
-280 -282 0
-280 -283 0
-281 -282 0
-281 -283 0
-282 -283 0
-284 -285 0
-284 -286 0
-284 -287 0
-285 -286 0
-285 -287 0
-286 -287 0
-288 -289 0
-288 -290 0
-288 -291 0
-288 -292 0
-288 -293 0
-289 -290 0
-289 -291 0
-289 -292 0
-289 -293 0
-290 -291 0
-290 -292 0
-290 -293 0
-291 -292 0
-291 -293 0
-292 -293 0
-294 -295 0
-294 -296 0
-294 -297 0
-294 -298 0
-295 -296 0
-295 -297 0
-295 -298 0
-296 -297 0
-296 -298 0
-297 -298 0
-299 -300 0
-299 -301 0
-299 -302 0
-300 -301 0
-300 -302 0
-301 -302 0
-303 -304 0
-303 -305 0
-303 -306 0
-303 -307 0
-303 -308 0
-304 -305 0
-304 -306 0
-304 -307 0
-304 -308 0
-305 -306 0
-305 -307 0
-305 -308 0
-306 -307 0
-306 -308 0
-307 -308 0
-5 -13 0
-5 -18 0
-5 -22 0
-13 -18 0
-13 -22 0
-18 -22 0
-8 -14 0
-8 -19 0
-8 -23 0
-14 -19 0
-14 -23 0
-19 -23 0
-1 -6 0
-1 -9 0
-1 -15 0
-1 -20 0
-1 -24 0
-6 -9 0
-6 -15 0
-6 -20 0
-6 -24 0
-9 -15 0
-9 -20 0
-9 -24 0
-15 -20 0
-15 -24 0
-20 -24 0
-2 -10 0
-2 -16 0
-2 -25 0
-10 -16 0
-10 -25 0
-16 -25 0
-3 -11 0
-4 -7 0
-4 -12 0
-4 -17 0
-4 -21 0
-4 -26 0
-7 -12 0
-7 -17 0
-7 -21 0
-7 -26 0
-12 -17 0
-12 -21 0
-12 -26 0
-17 -21 0
-17 -26 0
-21 -26 0
-27 -32 0
-27 -56 0
-32 -56 0
-28 -33 0
-28 -40 0
-28 -45 0
-28 -51 0
-28 -57 0
-33 -40 0
-33 -45 0
-33 -51 0
-33 -57 0
-40 -45 0
-40 -51 0
-40 -57 0
-45 -51 0
-45 -57 0
-51 -57 0
-29 -36 0
-29 -46 0
-29 -52 0
-29 -58 0
-36 -46 0
-36 -52 0
-36 -58 0
-46 -52 0
-46 -58 0
-52 -58 0
-30 -34 0
-30 -41 0
-30 -47 0
-30 -53 0
-30 -59 0
-34 -41 0
-34 -47 0
-34 -53 0
-34 -59 0
-41 -47 0
-41 -53 0
-41 -59 0
-47 -53 0
-47 -59 0
-53 -59 0
-31 -35 0
-31 -37 0
-31 -42 0
-31 -48 0
-31 -54 0
-31 -60 0
-35 -37 0
-35 -42 0
-35 -48 0
-35 -54 0
-35 -60 0
-37 -42 0
-37 -48 0
-37 -54 0
-37 -60 0
-42 -48 0
-42 -54 0
-42 -60 0
-48 -54 0
-48 -60 0
-54 -60 0
-38 -43 0
-38 -49 0
-38 -61 0
-43 -49 0
-43 -61 0
-49 -61 0
-39 -44 0
-39 -50 0
-39 -55 0
-44 -50 0
-44 -55 0
-50 -55 0
-62 -67 0
-62 -73 0
-62 -103 0
-62 -110 0
-67 -73 0
-67 -103 0
-67 -110 0
-73 -103 0
-73 -110 0
-103 -110 0
-78 -83 0
-78 -97 0
-78 -104 0
-78 -111 0
-83 -97 0
-83 -104 0
-83 -111 0
-97 -104 0
-97 -111 0
-104 -111 0
-68 -74 0
-68 -84 0
-68 -90 0
-68 -98 0
-68 -105 0
-68 -112 0
-74 -84 0
-74 -90 0
-74 -98 0
-74 -105 0
-74 -112 0
-84 -90 0
-84 -98 0
-84 -105 0
-84 -112 0
-90 -98 0
-90 -105 0
-90 -112 0
-98 -105 0
-98 -112 0
-105 -112 0
-63 -69 0
-63 -79 0
-63 -91 0
-63 -99 0
-63 -106 0
-63 -113 0
-69 -79 0
-69 -91 0
-69 -99 0
-69 -106 0
-69 -113 0
-79 -91 0
-79 -99 0
-79 -106 0
-79 -113 0
-91 -99 0
-91 -106 0
-91 -113 0
-99 -106 0
-99 -113 0
-106 -113 0
-64 -70 0
-64 -75 0
-64 -85 0
-64 -92 0
-64 -100 0
-64 -114 0
-70 -75 0
-70 -85 0
-70 -92 0
-70 -100 0
-70 -114 0
-75 -85 0
-75 -92 0
-75 -100 0
-75 -114 0
-85 -92 0
-85 -100 0
-85 -114 0
-92 -100 0
-92 -114 0
-100 -114 0
-65 -71 0
-65 -76 0
-65 -86 0
-65 -93 0
-71 -76 0
-71 -86 0
-71 -93 0
-76 -86 0
-76 -93 0
-86 -93 0
-66 -72 0
-66 -77 0
-66 -80 0
-66 -87 0
-66 -94 0
-66 -101 0
-66 -107 0
-66 -115 0
-72 -77 0
-72 -80 0
-72 -87 0
-72 -94 0
-72 -101 0
-72 -107 0
-72 -115 0
-77 -80 0
-77 -87 0
-77 -94 0
-77 -101 0
-77 -107 0
-77 -115 0
-80 -87 0
-80 -94 0
-80 -101 0
-80 -107 0
-80 -115 0
-87 -94 0
-87 -101 0
-87 -107 0
-87 -115 0
-94 -101 0
-94 -107 0
-94 -115 0
-101 -107 0
-101 -115 0
-107 -115 0
-81 -88 0
-81 -95 0
-81 -108 0
-81 -116 0
-88 -95 0
-88 -108 0
-88 -116 0
-95 -108 0
-95 -116 0
-108 -116 0
-82 -89 0
-82 -96 0
-82 -102 0
-82 -109 0
-89 -96 0
-89 -102 0
-89 -109 0
-96 -102 0
-96 -109 0
-102 -109 0
-117 -121 0
-117 -124 0
-117 -135 0
-121 -124 0
-121 -135 0
-124 -135 0
-131 -136 0
-118 -122 0
-118 -125 0
-118 -132 0
-118 -137 0
-122 -125 0
-122 -132 0
-122 -137 0
-125 -132 0
-125 -137 0
-132 -137 0
-119 -123 0
-119 -126 0
-119 -128 0
-119 -133 0
-119 -138 0
-123 -126 0
-123 -128 0
-123 -133 0
-123 -138 0
-126 -128 0
-126 -133 0
-126 -138 0
-128 -133 0
-128 -138 0
-133 -138 0
-129 -139 0
-120 -127 0
-120 -130 0
-120 -134 0
-127 -130 0
-127 -134 0
-130 -134 0
-140 -145 0
-140 -151 0
-140 -160 0
-140 -165 0
-145 -151 0
-145 -160 0
-145 -165 0
-151 -160 0
-151 -165 0
-160 -165 0
-155 -161 0
-155 -166 0
-161 -166 0
-156 -162 0
-156 -167 0
-162 -167 0
-141 -148 0
-141 -152 0
-148 -152 0
-142 -157 0
-142 -168 0
-157 -168 0
-143 -146 0
-143 -149 0
-143 -153 0
-143 -158 0
-143 -163 0
-143 -169 0
-146 -149 0
-146 -153 0
-146 -158 0
-146 -163 0
-146 -169 0
-149 -153 0
-149 -158 0
-149 -163 0
-149 -169 0
-153 -158 0
-153 -163 0
-153 -169 0
-158 -163 0
-158 -169 0
-163 -169 0
-144 -147 0
-144 -150 0
-144 -154 0
-144 -159 0
-144 -164 0
-147 -150 0
-147 -154 0
-147 -159 0
-147 -164 0
-150 -154 0
-150 -159 0
-150 -164 0
-154 -159 0
-154 -164 0
-159 -164 0
-170 -174 0
-170 -179 0
-170 -189 0
-170 -200 0
-170 -207 0
-174 -179 0
-174 -189 0
-174 -200 0
-174 -207 0
-179 -189 0
-179 -200 0
-179 -207 0
-189 -200 0
-189 -207 0
-200 -207 0
-175 -180 0
-175 -195 0
-175 -201 0
-175 -208 0
-180 -195 0
-180 -201 0
-180 -208 0
-195 -201 0
-195 -208 0
-201 -208 0
-176 -181 0
-176 -196 0
-176 -202 0
-176 -209 0
-181 -196 0
-181 -202 0
-181 -209 0
-196 -202 0
-196 -209 0
-202 -209 0
-190 -197 0
-190 -203 0
-190 -210 0
-197 -203 0
-197 -210 0
-203 -210 0
-171 -177 0
-171 -182 0
-171 -185 0
-171 -191 0
-177 -182 0
-177 -185 0
-177 -191 0
-182 -185 0
-182 -191 0
-185 -191 0
-172 -178 0
-172 -183 0
-172 -186 0
-172 -192 0
-172 -198 0
-172 -204 0
-172 -211 0
-178 -183 0
-178 -186 0
-178 -192 0
-178 -198 0
-178 -204 0
-178 -211 0
-183 -186 0
-183 -192 0
-183 -198 0
-183 -204 0
-183 -211 0
-186 -192 0
-186 -198 0
-186 -204 0
-186 -211 0
-192 -198 0
-192 -204 0
-192 -211 0
-198 -204 0
-198 -211 0
-204 -211 0
-187 -193 0
-187 -205 0
-187 -212 0
-193 -205 0
-193 -212 0
-205 -212 0
-173 -184 0
-173 -188 0
-173 -194 0
-173 -199 0
-173 -206 0
-184 -188 0
-184 -194 0
-184 -199 0
-184 -206 0
-188 -194 0
-188 -199 0
-188 -206 0
-194 -199 0
-194 -206 0
-199 -206 0
-213 -217 0
-213 -222 0
-213 -227 0
-213 -230 0
-217 -222 0
-217 -227 0
-217 -230 0
-222 -227 0
-222 -230 0
-227 -230 0
-218 -223 0
-218 -228 0
-218 -234 0
-223 -228 0
-223 -234 0
-228 -234 0
-231 -235 0
-214 -219 0
-214 -224 0
-219 -224 0
-215 -220 0
-215 -225 0
-215 -232 0
-220 -225 0
-220 -232 0
-225 -232 0
-216 -221 0
-216 -226 0
-216 -229 0
-216 -233 0
-216 -236 0
-221 -226 0
-221 -229 0
-221 -233 0
-221 -236 0
-226 -229 0
-226 -233 0
-226 -236 0
-229 -233 0
-229 -236 0
-233 -236 0
-237 -242 0
-237 -252 0
-242 -252 0
-238 -243 0
-238 -247 0
-238 -257 0
-238 -261 0
-238 -264 0
-243 -247 0
-243 -257 0
-243 -261 0
-243 -264 0
-247 -257 0
-247 -261 0
-247 -264 0
-257 -261 0
-257 -264 0
-261 -264 0
-239 -258 0
-239 -262 0
-239 -265 0
-258 -262 0
-258 -265 0
-262 -265 0
-240 -244 0
-240 -248 0
-240 -253 0
-240 -259 0
-240 -266 0
-244 -248 0
-244 -253 0
-244 -259 0
-244 -266 0
-248 -253 0
-248 -259 0
-248 -266 0
-253 -259 0
-253 -266 0
-259 -266 0
-241 -245 0
-241 -249 0
-241 -254 0
-241 -260 0
-241 -263 0
-241 -267 0
-245 -249 0
-245 -254 0
-245 -260 0
-245 -263 0
-245 -267 0
-249 -254 0
-249 -260 0
-249 -263 0
-249 -267 0
-254 -260 0
-254 -263 0
-254 -267 0
-260 -263 0
-260 -267 0
-263 -267 0
-250 -255 0
-246 -251 0
-246 -256 0
-251 -256 0
-274 -279 0
-274 -284 0
-274 -288 0
-274 -299 0
-274 -303 0
-279 -284 0
-279 -288 0
-279 -299 0
-279 -303 0
-284 -288 0
-284 -299 0
-284 -303 0
-288 -299 0
-288 -303 0
-299 -303 0
-289 -294 0
-289 -300 0
-289 -304 0
-294 -300 0
-294 -304 0
-300 -304 0
-268 -275 0
-268 -301 0
-268 -305 0
-275 -301 0
-275 -305 0
-301 -305 0
-269 -276 0
-269 -280 0
-269 -306 0
-276 -280 0
-276 -306 0
-280 -306 0
-270 -277 0
-270 -281 0
-270 -290 0
-270 -295 0
-270 -307 0
-277 -281 0
-277 -290 0
-277 -295 0
-277 -307 0
-281 -290 0
-281 -295 0
-281 -307 0
-290 -295 0
-290 -307 0
-295 -307 0
-271 -278 0
-271 -282 0
-271 -285 0
-271 -291 0
-271 -296 0
-271 -302 0
-271 -308 0
-278 -282 0
-278 -285 0
-278 -291 0
-278 -296 0
-278 -302 0
-278 -308 0
-282 -285 0
-282 -291 0
-282 -296 0
-282 -302 0
-282 -308 0
-285 -291 0
-285 -296 0
-285 -302 0
-285 -308 0
-291 -296 0
-291 -302 0
-291 -308 0
-296 -302 0
-296 -308 0
-302 -308 0
-272 -286 0
-272 -292 0
-272 -297 0
-286 -292 0
-286 -297 0
-292 -297 0
-273 -283 0
-273 -287 0
-273 -293 0
-273 -298 0
-283 -287 0
-283 -293 0
-283 -298 0
-287 -293 0
-287 -298 0
-293 -298 0
-62 -117 0
-62 -140 0
-62 -170 0
-62 -213 0
-117 -140 0
-117 -170 0
-117 -213 0
-140 -170 0
-140 -213 0
-170 -213 0
-1 -63 0
-1 -268 0
-63 -268 0
-2 -64 0
-2 -141 0
-2 -171 0
-2 -214 0
-2 -269 0
-64 -141 0
-64 -171 0
-64 -214 0
-64 -269 0
-141 -171 0
-141 -214 0
-141 -269 0
-171 -214 0
-171 -269 0
-214 -269 0
-3 -65 0
-3 -118 0
-3 -142 0
-3 -215 0
-3 -270 0
-65 -118 0
-65 -142 0
-65 -215 0
-65 -270 0
-118 -142 0
-118 -215 0
-118 -270 0
-142 -215 0
-142 -270 0
-215 -270 0
-4 -66 0
-4 -119 0
-4 -143 0
-4 -172 0
-4 -216 0
-4 -271 0
-66 -119 0
-66 -143 0
-66 -172 0
-66 -216 0
-66 -271 0
-119 -143 0
-119 -172 0
-119 -216 0
-119 -271 0
-143 -172 0
-143 -216 0
-143 -271 0
-172 -216 0
-172 -271 0
-216 -271 0
-120 -144 0
-120 -173 0
-120 -273 0
-144 -173 0
-144 -273 0
-173 -273 0
-27 -67 0
-27 -121 0
-27 -174 0
-27 -217 0
-27 -237 0
-67 -121 0
-67 -174 0
-67 -217 0
-67 -237 0
-121 -174 0
-121 -217 0
-121 -237 0
-174 -217 0
-174 -237 0
-217 -237 0
-175 -218 0
-175 -238 0
-175 -274 0
-218 -238 0
-218 -274 0
-238 -274 0
-28 -68 0
-28 -176 0
-68 -176 0
-29 -69 0
-29 -239 0
-29 -275 0
-69 -239 0
-69 -275 0
-239 -275 0
-30 -70 0
-30 -177 0
-30 -219 0
-30 -276 0
-70 -177 0
-70 -219 0
-70 -276 0
-177 -219 0
-177 -276 0
-219 -276 0
-71 -122 0
-71 -220 0
-71 -240 0
-71 -277 0
-122 -220 0
-122 -240 0
-122 -277 0
-220 -240 0
-220 -277 0
-240 -277 0
-31 -72 0
-31 -123 0
-31 -178 0
-31 -221 0
-31 -241 0
-31 -278 0
-72 -123 0
-72 -178 0
-72 -221 0
-72 -241 0
-72 -278 0
-123 -178 0
-123 -221 0
-123 -241 0
-123 -278 0
-178 -221 0
-178 -241 0
-178 -278 0
-221 -241 0
-221 -278 0
-241 -278 0
-32 -73 0
-32 -124 0
-32 -179 0
-32 -222 0
-32 -242 0
-73 -124 0
-73 -179 0
-73 -222 0
-73 -242 0
-124 -179 0
-124 -222 0
-124 -242 0
-179 -222 0
-179 -242 0
-222 -242 0
-180 -223 0
-180 -243 0
-180 -279 0
-223 -243 0
-223 -279 0
-243 -279 0
-33 -74 0
-33 -181 0
-74 -181 0
-34 -75 0
-34 -182 0
-34 -224 0
-34 -280 0
-75 -182 0
-75 -224 0
-75 -280 0
-182 -224 0
-182 -280 0
-224 -280 0
-76 -125 0
-76 -225 0
-76 -244 0
-76 -281 0
-125 -225 0
-125 -244 0
-125 -281 0
-225 -244 0
-225 -281 0
-244 -281 0
-35 -77 0
-35 -126 0
-35 -183 0
-35 -226 0
-35 -245 0
-35 -282 0
-77 -126 0
-77 -183 0
-77 -226 0
-77 -245 0
-77 -282 0
-126 -183 0
-126 -226 0
-126 -245 0
-126 -282 0
-183 -226 0
-183 -245 0
-183 -282 0
-226 -245 0
-226 -282 0
-245 -282 0
-127 -184 0
-127 -246 0
-127 -283 0
-184 -246 0
-184 -283 0
-246 -283 0
-145 -227 0
-5 -78 0
-5 -228 0
-5 -284 0
-78 -228 0
-78 -284 0
-228 -284 0
-6 -36 0
-6 -79 0
-36 -79 0
-7 -37 0
-7 -80 0
-7 -146 0
-7 -229 0
-7 -285 0
-37 -80 0
-37 -146 0
-37 -229 0
-37 -285 0
-80 -146 0
-80 -229 0
-80 -285 0
-146 -229 0
-146 -285 0
-229 -285 0
-38 -81 0
-38 -286 0
-81 -286 0
-39 -82 0
-39 -147 0
-39 -287 0
-82 -147 0
-82 -287 0
-147 -287 0
-83 -247 0
-83 -288 0
-247 -288 0
-40 -84 0
-40 -289 0
-84 -289 0
-41 -85 0
-41 -148 0
-41 -185 0
-85 -148 0
-85 -185 0
-148 -185 0
-86 -248 0
-86 -290 0
-248 -290 0
-42 -87 0
-42 -128 0
-42 -149 0
-42 -186 0
-42 -249 0
-42 -291 0
-87 -128 0
-87 -149 0
-87 -186 0
-87 -249 0
-87 -291 0
-128 -149 0
-128 -186 0
-128 -249 0
-128 -291 0
-149 -186 0
-149 -249 0
-149 -291 0
-186 -249 0
-186 -291 0
-249 -291 0
-43 -88 0
-43 -129 0
-43 -187 0
-43 -250 0
-43 -292 0
-88 -129 0
-88 -187 0
-88 -250 0
-88 -292 0
-129 -187 0
-129 -250 0
-129 -292 0
-187 -250 0
-187 -292 0
-250 -292 0
-44 -89 0
-44 -130 0
-44 -150 0
-44 -188 0
-44 -251 0
-44 -293 0
-89 -130 0
-89 -150 0
-89 -188 0
-89 -251 0
-89 -293 0
-130 -150 0
-130 -188 0
-130 -251 0
-130 -293 0
-150 -188 0
-150 -251 0
-150 -293 0
-188 -251 0
-188 -293 0
-251 -293 0
-151 -189 0
-151 -230 0
-151 -252 0
-189 -230 0
-189 -252 0
-230 -252 0
-8 -45 0
-8 -90 0
-8 -231 0
-8 -294 0
-45 -90 0
-45 -231 0
-45 -294 0
-90 -231 0
-90 -294 0
-231 -294 0
-9 -46 0
-9 -91 0
-9 -190 0
-46 -91 0
-46 -190 0
-91 -190 0
-10 -47 0
-10 -92 0
-10 -152 0
-10 -191 0
-47 -92 0
-47 -152 0
-47 -191 0
-92 -152 0
-92 -191 0
-152 -191 0
-11 -93 0
-11 -232 0
-11 -253 0
-11 -295 0
-93 -232 0
-93 -253 0
-93 -295 0
-232 -253 0
-232 -295 0
-253 -295 0
-12 -48 0
-12 -94 0
-12 -153 0
-12 -192 0
-12 -233 0
-12 -254 0
-12 -296 0
-48 -94 0
-48 -153 0
-48 -192 0
-48 -233 0
-48 -254 0
-48 -296 0
-94 -153 0
-94 -192 0
-94 -233 0
-94 -254 0
-94 -296 0
-153 -192 0
-153 -233 0
-153 -254 0
-153 -296 0
-192 -233 0
-192 -254 0
-192 -296 0
-233 -254 0
-233 -296 0
-254 -296 0
-49 -95 0
-49 -193 0
-49 -255 0
-49 -297 0
-95 -193 0
-95 -255 0
-95 -297 0
-193 -255 0
-193 -297 0
-255 -297 0
-50 -96 0
-50 -154 0
-50 -194 0
-50 -256 0
-50 -298 0
-96 -154 0
-96 -194 0
-96 -256 0
-96 -298 0
-154 -194 0
-154 -256 0
-154 -298 0
-194 -256 0
-194 -298 0
-256 -298 0
-13 -97 0
-13 -155 0
-13 -195 0
-13 -257 0
-97 -155 0
-97 -195 0
-97 -257 0
-155 -195 0
-155 -257 0
-195 -257 0
-14 -51 0
-14 -98 0
-14 -156 0
-14 -196 0
-51 -98 0
-51 -156 0
-51 -196 0
-98 -156 0
-98 -196 0
-156 -196 0
-15 -52 0
-15 -99 0
-15 -131 0
-15 -197 0
-15 -258 0
-52 -99 0
-52 -131 0
-52 -197 0
-52 -258 0
-99 -131 0
-99 -197 0
-99 -258 0
-131 -197 0
-131 -258 0
-197 -258 0
-16 -53 0
-16 -100 0
-53 -100 0
-132 -157 0
-132 -259 0
-157 -259 0
-17 -54 0
-17 -101 0
-17 -133 0
-17 -158 0
-17 -198 0
-17 -260 0
-54 -101 0
-54 -133 0
-54 -158 0
-54 -198 0
-54 -260 0
-101 -133 0
-101 -158 0
-101 -198 0
-101 -260 0
-133 -158 0
-133 -198 0
-133 -260 0
-158 -198 0
-158 -260 0
-198 -260 0
-55 -102 0
-55 -134 0
-55 -159 0
-55 -199 0
-102 -134 0
-102 -159 0
-102 -199 0
-134 -159 0
-134 -199 0
-159 -199 0
-103 -160 0
-103 -200 0
-160 -200 0
-18 -104 0
-18 -161 0
-18 -201 0
-18 -234 0
-18 -261 0
-18 -299 0
-104 -161 0
-104 -201 0
-104 -234 0
-104 -261 0
-104 -299 0
-161 -201 0
-161 -234 0
-161 -261 0
-161 -299 0
-201 -234 0
-201 -261 0
-201 -299 0
-234 -261 0
-234 -299 0
-261 -299 0
-19 -105 0
-19 -162 0
-19 -202 0
-19 -235 0
-19 -300 0
-105 -162 0
-105 -202 0
-105 -235 0
-105 -300 0
-162 -202 0
-162 -235 0
-162 -300 0
-202 -235 0
-202 -300 0
-235 -300 0
-20 -106 0
-20 -203 0
-20 -262 0
-20 -301 0
-106 -203 0
-106 -262 0
-106 -301 0
-203 -262 0
-203 -301 0
-262 -301 0
-21 -107 0
-21 -163 0
-21 -204 0
-21 -236 0
-21 -263 0
-21 -302 0
-107 -163 0
-107 -204 0
-107 -236 0
-107 -263 0
-107 -302 0
-163 -204 0
-163 -236 0
-163 -263 0
-163 -302 0
-204 -236 0
-204 -263 0
-204 -302 0
-236 -263 0
-236 -302 0
-263 -302 0
-108 -205 0
-109 -164 0
-109 -206 0
-164 -206 0
-56 -110 0
-56 -135 0
-56 -165 0
-56 -207 0
-110 -135 0
-110 -165 0
-110 -207 0
-135 -165 0
-135 -207 0
-165 -207 0
-22 -111 0
-22 -166 0
-22 -208 0
-22 -264 0
-22 -303 0
-111 -166 0
-111 -208 0
-111 -264 0
-111 -303 0
-166 -208 0
-166 -264 0
-166 -303 0
-208 -264 0
-208 -303 0
-264 -303 0
-23 -57 0
-23 -112 0
-23 -167 0
-23 -209 0
-23 -304 0
-57 -112 0
-57 -167 0
-57 -209 0
-57 -304 0
-112 -167 0
-112 -209 0
-112 -304 0
-167 -209 0
-167 -304 0
-209 -304 0
-24 -58 0
-24 -113 0
-24 -136 0
-24 -210 0
-24 -265 0
-24 -305 0
-58 -113 0
-58 -136 0
-58 -210 0
-58 -265 0
-58 -305 0
-113 -136 0
-113 -210 0
-113 -265 0
-113 -305 0
-136 -210 0
-136 -265 0
-136 -305 0
-210 -265 0
-210 -305 0
-265 -305 0
-25 -59 0
-25 -114 0
-25 -306 0
-59 -114 0
-59 -306 0
-114 -306 0
-137 -168 0
-137 -266 0
-137 -307 0
-168 -266 0
-168 -307 0
-266 -307 0
-26 -60 0
-26 -115 0
-26 -138 0
-26 -169 0
-26 -211 0
-26 -267 0
-26 -308 0
-60 -115 0
-60 -138 0
-60 -169 0
-60 -211 0
-60 -267 0
-60 -308 0
-115 -138 0
-115 -169 0
-115 -211 0
-115 -267 0
-115 -308 0
-138 -169 0
-138 -211 0
-138 -267 0
-138 -308 0
-169 -211 0
-169 -267 0
-169 -308 0
-211 -267 0
-211 -308 0
-267 -308 0
-61 -116 0
-61 -139 0
-61 -212 0
-116 -139 0
-116 -212 0
-139 -212 0
-27 -32 0
-27 -62 0
-27 -67 0
-27 -73 0
-32 -62 0
-32 -67 0
-32 -73 0
-62 -67 0
-62 -73 0
-67 -73 0
-28 -33 0
-28 -68 0
-28 -74 0
-33 -68 0
-33 -74 0
-68 -74 0
-1 -29 0
-1 -63 0
-1 -69 0
-29 -63 0
-29 -69 0
-63 -69 0
-2 -30 0
-2 -34 0
-2 -64 0
-2 -70 0
-2 -75 0
-30 -34 0
-30 -64 0
-30 -70 0
-30 -75 0
-34 -64 0
-34 -70 0
-34 -75 0
-64 -70 0
-64 -75 0
-70 -75 0
-3 -65 0
-3 -71 0
-3 -76 0
-65 -71 0
-65 -76 0
-71 -76 0
-4 -31 0
-4 -35 0
-4 -66 0
-4 -72 0
-4 -77 0
-31 -35 0
-31 -66 0
-31 -72 0
-31 -77 0
-35 -66 0
-35 -72 0
-35 -77 0
-66 -72 0
-66 -77 0
-72 -77 0
-5 -78 0
-5 -83 0
-78 -83 0
-8 -40 0
-8 -45 0
-8 -84 0
-8 -90 0
-40 -45 0
-40 -84 0
-40 -90 0
-45 -84 0
-45 -90 0
-84 -90 0
-6 -9 0
-6 -36 0
-6 -46 0
-6 -79 0
-6 -91 0
-9 -36 0
-9 -46 0
-9 -79 0
-9 -91 0
-36 -46 0
-36 -79 0
-36 -91 0
-46 -79 0
-46 -91 0
-79 -91 0
-10 -41 0
-10 -47 0
-10 -85 0
-10 -92 0
-41 -47 0
-41 -85 0
-41 -92 0
-47 -85 0
-47 -92 0
-85 -92 0
-11 -86 0
-11 -93 0
-86 -93 0
-7 -12 0
-7 -37 0
-7 -42 0
-7 -48 0
-7 -80 0
-7 -87 0
-7 -94 0
-12 -37 0
-12 -42 0
-12 -48 0
-12 -80 0
-12 -87 0
-12 -94 0
-37 -42 0
-37 -48 0
-37 -80 0
-37 -87 0
-37 -94 0
-42 -48 0
-42 -80 0
-42 -87 0
-42 -94 0
-48 -80 0
-48 -87 0
-48 -94 0
-80 -87 0
-80 -94 0
-87 -94 0
-38 -43 0
-38 -49 0
-38 -81 0
-38 -88 0
-38 -95 0
-43 -49 0
-43 -81 0
-43 -88 0
-43 -95 0
-49 -81 0
-49 -88 0
-49 -95 0
-81 -88 0
-81 -95 0
-88 -95 0
-39 -44 0
-39 -50 0
-39 -82 0
-39 -89 0
-39 -96 0
-44 -50 0
-44 -82 0
-44 -89 0
-44 -96 0
-50 -82 0
-50 -89 0
-50 -96 0
-82 -89 0
-82 -96 0
-89 -96 0
-56 -103 0
-56 -110 0
-103 -110 0
-13 -18 0
-13 -22 0
-13 -97 0
-13 -104 0
-13 -111 0
-18 -22 0
-18 -97 0
-18 -104 0
-18 -111 0
-22 -97 0
-22 -104 0
-22 -111 0
-97 -104 0
-97 -111 0
-104 -111 0
-14 -19 0
-14 -23 0
-14 -51 0
-14 -57 0
-14 -98 0
-14 -105 0
-14 -112 0
-19 -23 0
-19 -51 0
-19 -57 0
-19 -98 0
-19 -105 0
-19 -112 0
-23 -51 0
-23 -57 0
-23 -98 0
-23 -105 0
-23 -112 0
-51 -57 0
-51 -98 0
-51 -105 0
-51 -112 0
-57 -98 0
-57 -105 0
-57 -112 0
-98 -105 0
-98 -112 0
-105 -112 0
-15 -20 0
-15 -24 0
-15 -52 0
-15 -58 0
-15 -99 0
-15 -106 0
-15 -113 0
-20 -24 0
-20 -52 0
-20 -58 0
-20 -99 0
-20 -106 0
-20 -113 0
-24 -52 0
-24 -58 0
-24 -99 0
-24 -106 0
-24 -113 0
-52 -58 0
-52 -99 0
-52 -106 0
-52 -113 0
-58 -99 0
-58 -106 0
-58 -113 0
-99 -106 0
-99 -113 0
-106 -113 0
-16 -25 0
-16 -53 0
-16 -59 0
-16 -100 0
-16 -114 0
-25 -53 0
-25 -59 0
-25 -100 0
-25 -114 0
-53 -59 0
-53 -100 0
-53 -114 0
-59 -100 0
-59 -114 0
-100 -114 0
-17 -21 0
-17 -26 0
-17 -54 0
-17 -60 0
-17 -101 0
-17 -107 0
-17 -115 0
-21 -26 0
-21 -54 0
-21 -60 0
-21 -101 0
-21 -107 0
-21 -115 0
-26 -54 0
-26 -60 0
-26 -101 0
-26 -107 0
-26 -115 0
-54 -60 0
-54 -101 0
-54 -107 0
-54 -115 0
-60 -101 0
-60 -107 0
-60 -115 0
-101 -107 0
-101 -115 0
-107 -115 0
-61 -108 0
-61 -116 0
-108 -116 0
-55 -102 0
-55 -109 0
-102 -109 0
-117 -121 0
-117 -124 0
-117 -140 0
-117 -170 0
-117 -174 0
-117 -179 0
-121 -124 0
-121 -140 0
-121 -170 0
-121 -174 0
-121 -179 0
-124 -140 0
-124 -170 0
-124 -174 0
-124 -179 0
-140 -170 0
-140 -174 0
-140 -179 0
-170 -174 0
-170 -179 0
-174 -179 0
-175 -180 0
-176 -181 0
-141 -171 0
-141 -177 0
-141 -182 0
-171 -177 0
-171 -182 0
-177 -182 0
-118 -122 0
-118 -125 0
-118 -142 0
-122 -125 0
-122 -142 0
-125 -142 0
-119 -123 0
-119 -126 0
-119 -143 0
-119 -172 0
-119 -178 0
-119 -183 0
-123 -126 0
-123 -143 0
-123 -172 0
-123 -178 0
-123 -183 0
-126 -143 0
-126 -172 0
-126 -178 0
-126 -183 0
-143 -172 0
-143 -178 0
-143 -183 0
-172 -178 0
-172 -183 0
-178 -183 0
-120 -127 0
-120 -144 0
-120 -173 0
-120 -184 0
-127 -144 0
-127 -173 0
-127 -184 0
-144 -173 0
-144 -184 0
-173 -184 0
-145 -151 0
-145 -189 0
-151 -189 0
-148 -152 0
-148 -185 0
-148 -191 0
-152 -185 0
-152 -191 0
-185 -191 0
-128 -146 0
-128 -149 0
-128 -153 0
-128 -186 0
-128 -192 0
-146 -149 0
-146 -153 0
-146 -186 0
-146 -192 0
-149 -153 0
-149 -186 0
-149 -192 0
-153 -186 0
-153 -192 0
-186 -192 0
-129 -187 0
-129 -193 0
-187 -193 0
-130 -147 0
-130 -150 0
-130 -154 0
-130 -188 0
-130 -194 0
-147 -150 0
-147 -154 0
-147 -188 0
-147 -194 0
-150 -154 0
-150 -188 0
-150 -194 0
-154 -188 0
-154 -194 0
-188 -194 0
-135 -160 0
-135 -165 0
-135 -200 0
-135 -207 0
-160 -165 0
-160 -200 0
-160 -207 0
-165 -200 0
-165 -207 0
-200 -207 0
-155 -161 0
-155 -166 0
-155 -195 0
-155 -201 0
-155 -208 0
-161 -166 0
-161 -195 0
-161 -201 0
-161 -208 0
-166 -195 0
-166 -201 0
-166 -208 0
-195 -201 0
-195 -208 0
-201 -208 0
-156 -162 0
-156 -167 0
-156 -196 0
-156 -202 0
-156 -209 0
-162 -167 0
-162 -196 0
-162 -202 0
-162 -209 0
-167 -196 0
-167 -202 0
-167 -209 0
-196 -202 0
-196 -209 0
-202 -209 0
-131 -136 0
-131 -197 0
-131 -203 0
-131 -210 0
-136 -197 0
-136 -203 0
-136 -210 0
-197 -203 0
-197 -210 0
-203 -210 0
-132 -137 0
-132 -157 0
-132 -168 0
-137 -157 0
-137 -168 0
-157 -168 0
-133 -138 0
-133 -158 0
-133 -163 0
-133 -169 0
-133 -198 0
-133 -204 0
-133 -211 0
-138 -158 0
-138 -163 0
-138 -169 0
-138 -198 0
-138 -204 0
-138 -211 0
-158 -163 0
-158 -169 0
-158 -198 0
-158 -204 0
-158 -211 0
-163 -169 0
-163 -198 0
-163 -204 0
-163 -211 0
-169 -198 0
-169 -204 0
-169 -211 0
-198 -204 0
-198 -211 0
-204 -211 0
-139 -205 0
-139 -212 0
-205 -212 0
-134 -159 0
-134 -164 0
-134 -199 0
-134 -206 0
-159 -164 0
-159 -199 0
-159 -206 0
-164 -199 0
-164 -206 0
-199 -206 0
-213 -217 0
-213 -222 0
-213 -237 0
-213 -242 0
-217 -222 0
-217 -237 0
-217 -242 0
-222 -237 0
-222 -242 0
-237 -242 0
-218 -223 0
-218 -238 0
-218 -243 0
-218 -274 0
-218 -279 0
-223 -238 0
-223 -243 0
-223 -274 0
-223 -279 0
-238 -243 0
-238 -274 0
-238 -279 0
-243 -274 0
-243 -279 0
-274 -279 0
-239 -268 0
-239 -275 0
-268 -275 0
-214 -219 0
-214 -224 0
-214 -269 0
-214 -276 0
-214 -280 0
-219 -224 0
-219 -269 0
-219 -276 0
-219 -280 0
-224 -269 0
-224 -276 0
-224 -280 0
-269 -276 0
-269 -280 0
-276 -280 0
-215 -220 0
-215 -225 0
-215 -240 0
-215 -244 0
-215 -270 0
-215 -277 0
-215 -281 0
-220 -225 0
-220 -240 0
-220 -244 0
-220 -270 0
-220 -277 0
-220 -281 0
-225 -240 0
-225 -244 0
-225 -270 0
-225 -277 0
-225 -281 0
-240 -244 0
-240 -270 0
-240 -277 0
-240 -281 0
-244 -270 0
-244 -277 0
-244 -281 0
-270 -277 0
-270 -281 0
-277 -281 0
-216 -221 0
-216 -226 0
-216 -241 0
-216 -245 0
-216 -271 0
-216 -278 0
-216 -282 0
-221 -226 0
-221 -241 0
-221 -245 0
-221 -271 0
-221 -278 0
-221 -282 0
-226 -241 0
-226 -245 0
-226 -271 0
-226 -278 0
-226 -282 0
-241 -245 0
-241 -271 0
-241 -278 0
-241 -282 0
-245 -271 0
-245 -278 0
-245 -282 0
-271 -278 0
-271 -282 0
-278 -282 0
-246 -273 0
-246 -283 0
-273 -283 0
-227 -230 0
-227 -252 0
-230 -252 0
-228 -247 0
-228 -284 0
-228 -288 0
-247 -284 0
-247 -288 0
-284 -288 0
-231 -289 0
-231 -294 0
-289 -294 0
-232 -248 0
-232 -253 0
-232 -290 0
-232 -295 0
-248 -253 0
-248 -290 0
-248 -295 0
-253 -290 0
-253 -295 0
-290 -295 0
-229 -233 0
-229 -249 0
-229 -254 0
-229 -285 0
-229 -291 0
-229 -296 0
-233 -249 0
-233 -254 0
-233 -285 0
-233 -291 0
-233 -296 0
-249 -254 0
-249 -285 0
-249 -291 0
-249 -296 0
-254 -285 0
-254 -291 0
-254 -296 0
-285 -291 0
-285 -296 0
-291 -296 0
-250 -255 0
-250 -286 0
-250 -292 0
-250 -297 0
-255 -286 0
-255 -292 0
-255 -297 0
-286 -292 0
-286 -297 0
-292 -297 0
-251 -256 0
-251 -287 0
-251 -293 0
-251 -298 0
-256 -287 0
-256 -293 0
-256 -298 0
-287 -293 0
-287 -298 0
-293 -298 0
-234 -257 0
-234 -261 0
-234 -264 0
-234 -299 0
-234 -303 0
-257 -261 0
-257 -264 0
-257 -299 0
-257 -303 0
-261 -264 0
-261 -299 0
-261 -303 0
-264 -299 0
-264 -303 0
-299 -303 0
-235 -300 0
-235 -304 0
-300 -304 0
-258 -262 0
-258 -265 0
-258 -301 0
-258 -305 0
-262 -265 0
-262 -301 0
-262 -305 0
-265 -301 0
-265 -305 0
-301 -305 0
-259 -266 0
-259 -307 0
-266 -307 0
-236 -260 0
-236 -263 0
-236 -267 0
-236 -302 0
-236 -308 0
-260 -263 0
-260 -267 0
-260 -302 0
-260 -308 0
-263 -267 0
-263 -302 0
-263 -308 0
-267 -302 0
-267 -308 0
-302 -308 0
1 2 3 4 0
5 6 7 0
8 9 10 11 12 0
13 14 15 16 17 0
18 19 20 21 0
22 23 24 25 26 0
27 28 29 30 31 0
32 33 34 35 0
36 37 38 39 0
40 41 42 43 44 0
45 46 47 48 49 50 0
51 52 53 54 55 0
56 57 58 59 60 61 0
62 63 64 65 66 0
67 68 69 70 71 72 0
73 74 75 76 77 0
78 79 80 81 82 0
83 84 85 86 87 88 89 0
90 91 92 93 94 95 96 0
97 98 99 100 101 102 0
103 104 105 106 107 108 109 0
110 111 112 113 114 115 116 0
117 118 119 120 0
121 122 123 0
124 125 126 127 0
128 129 130 0
131 132 133 134 0
135 136 137 138 139 0
140 141 142 143 144 0
145 146 147 0
148 149 150 0
151 152 153 154 0
155 156 157 158 159 0
160 161 162 163 164 0
165 166 167 168 169 0
170 171 172 173 0
174 175 176 177 178 0
179 180 181 182 183 184 0
185 186 187 188 0
189 190 191 192 193 194 0
195 196 197 198 199 0
200 201 202 203 204 205 206 0
207 208 209 210 211 212 0
213 214 215 216 0
217 218 219 220 221 0
222 223 224 225 226 0
227 228 229 0
230 231 232 233 0
234 235 236 0
237 238 239 240 241 0
242 243 244 245 246 0
247 248 249 250 251 0
252 253 254 255 256 0
257 258 259 260 0
261 262 263 0
264 265 266 267 0
268 269 270 271 272 273 0
274 275 276 277 278 0
279 280 281 282 283 0
284 285 286 287 0
288 289 290 291 292 293 0
294 295 296 297 298 0
299 300 301 302 0
303 304 305 306 307 308 0
5 13 18 22 0
8 14 19 23 0
1 6 9 15 20 24 0
2 10 16 25 0
3 11 0
4 7 12 17 21 26 0
27 32 56 0
28 33 40 45 51 57 0
29 36 46 52 58 0
30 34 41 47 53 59 0
31 35 37 42 48 54 60 0
38 43 49 61 0
39 44 50 55 0
62 67 73 103 110 0
78 83 97 104 111 0
68 74 84 90 98 105 112 0
63 69 79 91 99 106 113 0
64 70 75 85 92 100 114 0
65 71 76 86 93 0
66 72 77 80 87 94 101 107 115 0
81 88 95 108 116 0
82 89 96 102 109 0
117 121 124 135 0
131 136 0
118 122 125 132 137 0
119 123 126 128 133 138 0
129 139 0
120 127 130 134 0
140 145 151 160 165 0
155 161 166 0
156 162 167 0
141 148 152 0
142 157 168 0
143 146 149 153 158 163 169 0
144 147 150 154 159 164 0
170 174 179 189 200 207 0
175 180 195 201 208 0
176 181 196 202 209 0
190 197 203 210 0
171 177 182 185 191 0
172 178 183 186 192 198 204 211 0
187 193 205 212 0
173 184 188 194 199 206 0
213 217 222 227 230 0
218 223 228 234 0
231 235 0
214 219 224 0
215 220 225 232 0
216 221 226 229 233 236 0
237 242 252 0
238 243 247 257 261 264 0
239 258 262 265 0
240 244 248 253 259 266 0
241 245 249 254 260 263 267 0
250 255 0
246 251 256 0
274 279 284 288 299 303 0
289 294 300 304 0
268 275 301 305 0
269 276 280 306 0
270 277 281 290 295 307 0
271 278 282 285 291 296 302 308 0
272 286 292 297 0
273 283 287 293 298 0
62 117 140 170 213 0
1 63 268 0
2 64 141 171 214 269 0
3 65 118 142 215 270 0
4 66 119 143 172 216 271 0
272 0
120 144 173 273 0
27 67 121 174 217 237 0
175 218 238 274 0
28 68 176 0
29 69 239 275 0
30 70 177 219 276 0
71 122 220 240 277 0
31 72 123 178 221 241 278 0
32 73 124 179 222 242 0
180 223 243 279 0
33 74 181 0
34 75 182 224 280 0
76 125 225 244 281 0
35 77 126 183 226 245 282 0
127 184 246 283 0
145 227 0
5 78 228 284 0
6 36 79 0
7 37 80 146 229 285 0
38 81 286 0
39 82 147 287 0
83 247 288 0
40 84 289 0
41 85 148 185 0
86 248 290 0
42 87 128 149 186 249 291 0
43 88 129 187 250 292 0
44 89 130 150 188 251 293 0
151 189 230 252 0
8 45 90 231 294 0
9 46 91 190 0
10 47 92 152 191 0
11 93 232 253 295 0
12 48 94 153 192 233 254 296 0
49 95 193 255 297 0
50 96 154 194 256 298 0
13 97 155 195 257 0
14 51 98 156 196 0
15 52 99 131 197 258 0
16 53 100 0
132 157 259 0
17 54 101 133 158 198 260 0
55 102 134 159 199 0
103 160 200 0
18 104 161 201 234 261 299 0
19 105 162 202 235 300 0
20 106 203 262 301 0
21 107 163 204 236 263 302 0
108 205 0
109 164 206 0
56 110 135 165 207 0
22 111 166 208 264 303 0
23 57 112 167 209 304 0
24 58 113 136 210 265 305 0
25 59 114 306 0
137 168 266 307 0
26 60 115 138 169 211 267 308 0
61 116 139 212 0
27 32 62 67 73 0
28 33 68 74 0
1 29 63 69 0
2 30 34 64 70 75 0
3 65 71 76 0
4 31 35 66 72 77 0
5 78 83 0
8 40 45 84 90 0
6 9 36 46 79 91 0
10 41 47 85 92 0
11 86 93 0
7 12 37 42 48 80 87 94 0
38 43 49 81 88 95 0
39 44 50 82 89 96 0
56 103 110 0
13 18 22 97 104 111 0
14 19 23 51 57 98 105 112 0
15 20 24 52 58 99 106 113 0
16 25 53 59 100 114 0
17 21 26 54 60 101 107 115 0
61 108 116 0
55 102 109 0
117 121 124 140 170 174 179 0
175 180 0
176 181 0
141 171 177 182 0
118 122 125 142 0
119 123 126 143 172 178 183 0
120 127 144 173 184 0
145 151 189 0
190 0
148 152 185 191 0
128 146 149 153 186 192 0
129 187 193 0
130 147 150 154 188 194 0
135 160 165 200 207 0
155 161 166 195 201 208 0
156 162 167 196 202 209 0
131 136 197 203 210 0
132 137 157 168 0
133 138 158 163 169 198 204 211 0
139 205 212 0
134 159 164 199 206 0
213 217 222 237 242 0
218 223 238 243 274 279 0
239 268 275 0
214 219 224 269 276 280 0
215 220 225 240 244 270 277 281 0
216 221 226 241 245 271 278 282 0
272 0
246 273 283 0
227 230 252 0
228 247 284 288 0
231 289 294 0
232 248 253 290 295 0
229 233 249 254 285 291 296 0
250 255 286 292 297 0
251 256 287 293 298 0
234 257 261 264 299 303 0
235 300 304 0
258 262 265 301 305 0
306 0
259 266 307 0
236 260 263 267 302 308 0
